c WARNING: for repeatability, setting FPU to use double precision
d VARIABLES            26911        
d CONSTRAINTS          96303        
c ============================[ Problem Statistics ]=============================
c |                                                                             |
c |  Number of variables:         26911                                         |
c |  Number of clauses:           96303                                         |
c |  Parse time:                   0.01 s                                       |
c |                                                                             |
c ============================[ Search Statistics ]==============================
c | Conflicts |          ORIGINAL         |          LEARNT          | Progress |
c |           |    Vars  Clauses Literals |    Limit  Clauses Lit/Cl |          |
c ===============================================================================
c |       100 |   16572    68409   168616 |    25083      100    100 | 38.419 % |
c |       250 |   16572    68409   168616 |    27591      250     88 | 38.419 % |
c |       475 |   16572    68409   168616 |    30350      475     92 | 38.419 % |
c |       812 |   16572    68409   168616 |    33385      812     92 | 38.419 % |
c |      1318 |   16572    68409   168616 |    36724     1318     94 | 38.419 % |
c |      2077 |   16572    68409   168616 |    40396     2077     88 | 38.419 % |
c |      3216 |   16572    68409   168616 |    44436     3216     82 | 38.419 % |
c |      4924 |   16572    68409   168616 |    48880     4924     89 | 38.419 % |
c |      7486 |   16572    68409   168616 |    53768     7486     97 | 38.419 % |
c |     11330 |   16572    68409   168616 |    59145    11330     99 | 38.419 % |
c |     17096 |   16572    68409   168616 |    65059    17096    105 | 38.419 % |
c |     25745 |   16572    68409   168616 |    71565    25745    111 | 38.419 % |
c |     38719 |   16572    68409   168616 |    78722    38719    115 | 38.419 % |
c |     58180 |   16572    68409   168616 |    86594    58180    106 | 38.419 % |
c |     87372 |   16572    68409   168616 |    95253    87372    102 | 38.419 % |
c |    131161 |   16572    68409   168616 |   104779    44376     76 | 38.419 % |
c |    196845 |   16534    68219   168160 |   115257    89822     70 | 38.560 % |
c ===============================================================================
c restarts              : 701
c conflicts             : 293387         (3891 /sec)
c decisions             : 494835         (0.00 % random) (6563 /sec)
c propagations          : 204702160      (2715145 /sec)
c conflict literals     : 21784218       (50.97 % deleted)
d RESTARTS             701
d FAILURES             293387       
d NODES                494835       
d BACKTRACKS           494835       
d PROPAGATIONS         204702160    
d NOGOODSIZE           74.25 
d MEMORY               78.00 
d TIME                 75.3927 

s UNSATISFIABLE
